sat
(
(define-fun J () String "baaaaaababb")
(define-fun I () String "aaaa")
(define-fun K () String "")
(define-fun G () String "")
(define-fun L () String "")
(define-fun O () String "")
(define-fun M () String "")
(define-fun P () String "aabaaaaaababbaabaabbbaa")
(define-fun Q () String "")
)
